T1: less data with simplified coordinates

VEHICLE
NUMBER     CAPACITY
  1          10

CUSTOMER
CUST NO.  XCOORD.   YCOORD.    DEMAND   READY TIME  DUE DATE   SERVICE   TIME

    0       0          0          0          0        1000         1
    1       1          0          1          0        1000         1
    2       3          0          1          0        1000         1
    3       7          0          1          0        1000         1
